3 3 2
25 0 31 2 96 0 58 1 54 2 83 0 61 2 98 1 65 2 29 1 59 0 63 1 48 0 71 1 89 2 8 0 12 2 79 0 31 1 30 0 11 2 54 1 56 0 89 1 82 2 53 
25 0 53 1 51 2 81 0 53 2 9 1 88 0 46 1 26 2 11 1 11 0 42 2 2 1 78 2 38 0 32 1 27 2 46 1 91 2 60 0 61 2 18 1 81 2 73 0 67 1 73 
25 0 39 2 95 1 37 2 6 0 39 2 59 0 35 2 84 0 86 2 10 0 88 1 0 0 82 1 58 0 67 2 10 0 83 2 86 0 72 1 57 2 20 1 89 0 6 1 18 0 74 

-------------
